p cnf 41 114
a 4 37 0
e 1 2 3 5 6 7 8 9 10 11 12 13 14 15 16 17 18 19 20 21 22 23 24 25 26 27 28 29 30 31 32 33 34 35 36 38 39 40 41 0
-1 2 -3 0
1 -2 -3 0
-1 -2 3 0
1 2 3 0
-4 5 -6 0
4 -5 -6 0
-4 -5 6 0
4 5 6 0
-6 7 0
6 7 0
8 3 0
8 7 0
-3 -7 -8 0
-10 9 0
-10 9 0
-9 10 0
-12 -11 0
-12 -2 0
11 2 12 0
-13 1 0
-13 12 0
-1 -12 13 0
14 -10 0
14 -13 0
10 13 -14 0
-15 4 0
-15 -4 0
16 14 0
16 -15 0
-14 15 -16 0
-17 -8 0
-17 16 0
8 -16 17 0
-18 2 0
-18 -10 0
-2 10 18 0
-19 -17 0
-19 -18 0
17 18 19 0
-11 2 -20 0
11 -2 -20 0
-11 -2 20 0
11 2 20 0
21 10 0
21 13 0
-10 -13 -21 0
-23 -4 0
-23 10 0
4 -10 23 0
24 -22 0
24 -23 0
22 23 -24 0
25 21 0
25 -24 0
-21 24 -25 0
-26 -4 0
-26 -14 0
4 14 26 0
-27 25 0
-27 26 0
-25 -26 27 0
28 20 0
28 27 0
-20 -27 -28 0
29 19 0
29 -28 0
-19 28 -29 0
-30 3 0
-30 -11 0
-3 11 30 0
31 29 0
31 -30 0
-29 30 -31 0
-32 5 0
-32 -13 0
-5 13 32 0
33 -10 0
33 1 0
10 -1 -33 0
35 -11 0
35 34 0
11 -34 -35 0
-35 -11 -36 0
35 11 -36 0
-35 11 36 0
35 -11 36 0
37 -1 0
37 1 0
36 37 -38 0
-36 -37 -38 0
36 -37 38 0
-36 37 38 0
-33 38 -39 0
33 -38 -39 0
-33 -38 39 0
33 38 39 0
-32 39 -40 0
32 -39 -40 0
-32 -39 40 0
32 39 40 0
-41 31 0
-41 -40 0
-31 40 41 0
19 -14 1 -33 -13 22 4 0
10 39 36 -29 -26 22 0
-39 -4 -31 -12 6 -3 0
16 -3 -15 41 0
-30 -1 -39 24 -28 29 0
-38 11 -4 0
-30 15 -10 11 7 0
11 33 -26 -1 0
-22 21 15 -25 0
10 29 20 28 0
41 0
